<instance format="XCSP3" type="COP">
  <variables>
    <array id="x" size="[30]"> 0 1 </array>
  </variables>
  <constraints>
    <sum>
      <list> x[] </list>
      <coeffs> 17 13 7 9 25 12 1 16 22 22 19 23 12 8 21 15 12 7 6 4 16 8 17 18 17 14 23 9 3 3 </coeffs>
      <condition> (le,100) </condition>
    </sum>
  </constraints>
  <objectives>
    <maximize type="sum">
      <list> x[] </list>
      <coeffs> 52 59 8 57 85 37 96 21 24 79 66 48 30 96 88 56 23 53 19 25 92 45 75 44 56 63 61 100 26 42 </coeffs>
    </maximize>
  </objectives>
</instance>
